Gurobi Optimizer version 9.1.2 build v9.1.2rc0 (linux64)
Thread count: 36 physical cores, 72 logical processors, using up to 32 threads
Optimize a model with 12 rows, 57 columns and 590 nonzeros
Model fingerprint: 0xf32eec78
Model has 47 quadratic constraints
Coefficient statistics:
  Matrix range     [2e-05, 3e+00]
  QMatrix range    [1e+00, 1e+00]
  QLMatrix range   [1e+00, 1e+00]
  Objective range  [8e-03, 7e-01]
  Bounds range     [1e+00, 1e+00]
  RHS range        [1e+00, 1e+00]
Presolve removed 9 rows and 0 columns

Continuous model is non-convex -- solving as a MIP.

Presolve removed 9 rows and 0 columns
Presolve time: 0.00s
Presolved: 189 rows, 57 columns, 443 nonzeros
Presolved model has 47 bilinear constraint(s)
Variable types: 57 continuous, 0 integer (0 binary)

Root relaxation: objective -1.743721e+00, 44 iterations, 0.00 seconds

    Nodes    |    Current Node    |     Objective Bounds      |     Work
 Expl Unexpl |  Obj  Depth IntInf | Incumbent    BestBd   Gap | It/Node Time

     0     0   -1.74372    0   38          -   -1.74372      -     -    0s
H    0     0                       0.6147548   -1.74372   384%     -    0s
     0     0   -1.64739    0    1    0.61475   -1.64739   368%     -    0s
H    0     0                      -1.6450460   -1.64739  0.14%     -    0s
     0     0     cutoff    0        -1.64505   -1.64505  0.00%     -    0s

Cutting planes:
  RLT: 25
  BQP: 3

Explored 1 nodes (76 simplex iterations) in 0.01 seconds
Thread count was 32 (of 72 available processors)

Solution count 2: -1.64505 0.614755 
No other solutions better than -1.64505

Optimal solution found (tolerance 1.00e-04)
Best objective -1.645045978473e+00, best bound -1.645045978473e+00, gap 0.0000%

User-callback calls 78, time in user-callback 0.00 sec
Gurobi Optimizer version 9.1.2 build v9.1.2rc0 (linux64)
Thread count: 36 physical cores, 72 logical processors, using up to 32 threads
Optimize a model with 60 rows, 300 columns and 15500 nonzeros
Model fingerprint: 0xddcbfbbd
Model has 250 quadratic constraints
Coefficient statistics:
  Matrix range     [1e-06, 4e+00]
  QMatrix range    [1e+00, 1e+00]
  QLMatrix range   [1e+00, 1e+00]
  Objective range  [2e-04, 9e-01]
  Bounds range     [1e+00, 1e+00]
  RHS range        [1e+00, 1e+00]
Presolve removed 10 rows and 0 columns

Continuous model is non-convex -- solving as a MIP.

Presolve removed 10 rows and 0 columns
Presolve time: 0.01s
Presolved: 1050 rows, 300 columns, 14462 nonzeros
Presolved model has 250 bilinear constraint(s)
Variable types: 300 continuous, 0 integer (0 binary)

Root relaxation: objective -2.026590e+01, 339 iterations, 0.02 seconds

    Nodes    |    Current Node    |     Objective Bounds      |     Work
 Expl Unexpl |  Obj  Depth IntInf | Incumbent    BestBd   Gap | It/Node Time

     0     0  -20.26590    0  209          -  -20.26590      -     -    0s
H    0     0                      -7.1690379  -20.26590   183%     -    0s
     0     0  -19.21598    0  171   -7.16904  -19.21598   168%     -    0s
H    0     0                     -11.1157397  -19.21598  72.9%     -    0s
     0     0  -18.88241    0  160  -11.11574  -18.88241  69.9%     -    0s
H    0     0                     -12.4412293  -18.88241  51.8%     -    0s
     0     0  -18.87756    0  160  -12.44123  -18.87756  51.7%     -    0s
     0     0  -18.86138    0  151  -12.44123  -18.86138  51.6%     -    0s
H    0     0                     -13.0126095  -18.86138  44.9%     -    0s
H    0     0                     -16.8448013  -18.86138  12.0%     -    0s
H    0     0                     -16.9651824  -18.86138  11.2%     -    0s
H    0     0                     -16.9930315  -18.86138  11.0%     -    0s
     0     2  -18.86138    0  151  -16.99303  -18.86138  11.0%     -    0s
* 1607   983              46     -16.9933964  -18.11944  6.63%  62.5    2s
* 1608   983              46     -16.9934292  -18.11944  6.63%  62.4    2s
* 1610   983              46     -16.9934428  -18.11944  6.63%  62.4    2s
* 1612   983              44     -16.9934783  -18.11944  6.63%  62.3    2s
* 1952  1276              83     -16.9953912  -18.11944  6.61%  57.5    2s
* 1953  1276              83     -16.9953925  -18.11944  6.61%  57.5    2s
* 1955  1276              83     -16.9953930  -18.11944  6.61%  57.4    2s
* 1957  1276              84     -16.9953943  -18.11944  6.61%  57.3    2s
* 1958  1276              84     -16.9953944  -18.11944  6.61%  57.3    2s
* 2125  1359              75     -16.9956489  -18.05226  6.22%  55.5    2s
* 2317  1450              42     -17.1104839  -18.05226  5.50%  53.9    2s
* 2629  1650              74     -17.3512856  -18.05226  4.04%  53.1    2s
  6502  1304     cutoff   21       -17.35129  -17.69652  1.99%  55.3    5s
*10249   730              84     -17.3515317  -17.69652  1.99%  54.7    6s
*10251   730              84     -17.3517055  -17.69652  1.99%  54.7    6s
*10477   747              85     -17.3517281  -17.69652  1.99%  54.4    6s
*10484   747              85     -17.3517283  -17.69652  1.99%  54.4    6s
*10879   817              63     -17.3519577  -17.69652  1.99%  54.0    6s
*10880   817              63     -17.3519676  -17.69652  1.99%  54.0    6s
*10882   817              63     -17.3519838  -17.69652  1.99%  54.0    6s
*10886   817              63     -17.3519839  -17.69652  1.99%  54.0    6s
*10890   817              64     -17.3519931  -17.69652  1.99%  54.0    6s
*13337  1138              64     -17.3637666  -17.65531  1.68%  51.3    7s
*14453  1234              61     -17.3644771  -17.62354  1.49%  50.0    7s
*14722  1352              66     -17.3650344  -17.55430  1.09%  49.7    7s
*14912  1352              66     -17.3835141  -17.55430  0.98%  49.4    7s
*15386  1383              67     -17.3839936  -17.55430  0.98%  48.9    7s
*15783  1436              86     -17.3844327  -17.50218  0.68%  48.4    8s
*15785  1436              86     -17.3845317  -17.50218  0.68%  48.4    8s
*16110  1433              78     -17.3853611  -17.49926  0.66%  48.0    8s
*16119  1433              81     -17.3854051  -17.49926  0.65%  48.0    8s
*16170  1433              71     -17.3856632  -17.49364  0.62%  47.9    8s
*18005  1492              65     -17.3863956  -17.46571  0.46%  46.4    8s
*18199  1492              69     -17.3910045  -17.46571  0.43%  46.2    8s
*19233  1585              53     -17.3910710  -17.44151  0.29%  45.3    8s
*19235  1585              53     -17.3910878  -17.44151  0.29%  45.3    8s
*19240  1585              53     -17.3911050  -17.44151  0.29%  45.3    8s
*19242  1585              54     -17.3911071  -17.44151  0.29%  45.3    8s
*19562  1585              66     -17.3925905  -17.43855  0.26%  45.0    8s
*19972  1929              56     -17.3926350  -17.43535  0.25%  44.5    8s
*19973  1929              56     -17.3926447  -17.43535  0.25%  44.5    8s
*20155  1929              71     -17.3928603  -17.43331  0.23%  44.2    8s
*20265  1929              64     -17.3956366  -17.43331  0.22%  44.1    8s
*20267  1929              65     -17.3957992  -17.43331  0.22%  44.1    8s
*20270  1929              64     -17.3960834  -17.43331  0.21%  44.1    8s
*20271  1929              64     -17.3960834  -17.43331  0.21%  44.1    8s
*20484  1929              68     -17.3992168  -17.43331  0.20%  43.8    8s
*20928  2151              72     -17.3994796  -17.43331  0.19%  43.2    9s
*20929  2151              72     -17.3994800  -17.43331  0.19%  43.2    9s
*21350  2151              61     -17.4015937  -17.43231  0.18%  42.5    9s
*21631  2151              54     -17.4026743  -17.43231  0.17%  42.1    9s
*21831  2151              61     -17.4054948  -17.43231  0.15%  41.8    9s
*22124  2268              65     -17.4056343  -17.42102  0.09%  41.4    9s
*22128  2268              66     -17.4066288  -17.42102  0.08%  41.4    9s
*22129  2268              66     -17.4066303  -17.42102  0.08%  41.4    9s
*22233  2268              67     -17.4102820  -17.42035  0.06%  41.2    9s
*22234  2268              67     -17.4102842  -17.42035  0.06%  41.2    9s
*23487   416              56     -17.4102853  -17.42021  0.06%  39.4    9s
*23774   416              62     -17.4102858  -17.41451  0.02%  39.0    9s
*24244   416              57     -17.4102903  -17.41227  0.01%  38.3    9s
*24249   416              57     -17.4102925  -17.41227  0.01%  38.3    9s

Explored 25486 nodes (930221 simplex iterations) in 9.49 seconds
Thread count was 32 (of 72 available processors)

Solution count 10: -17.4103 -17.4103 -17.4103 ... -17.4027

Optimal solution found (tolerance 1.00e-04)
Best objective -1.741029251708e+01, best bound -1.741112008373e+01, gap 0.0048%

User-callback calls 52014, time in user-callback 0.01 sec



objective value: -17.410292517081963
objective bound: -17.411120083731557
x_opt: [0.0, 1.0, 1.0, 0.0, 0.0, 0.0, 1.0, 1.0, 0.0, 0.0, 0.25256628607018566, 0.4228246426303103, 0.0, 1.0, 1.0, 1.0, 0.0, 1.0, 0.0, 0.0, 0.0, 1.0, 1.0, 1.0, 0.0, 1.0, 1.0, 1.0, 0.0, 0.998309936150612, 0.9999426438762858, 0.8507827916732724, 0.0, 0.2152531528711356, 1.0, 1.0, 1.0, 1.0, 0.32780789106806124, 1.0, 0.8621572536651294, 0.2723768278748166, 1.0, 0.0, 0.0, 0.7722800475075607, 0.09191859411304806, 0.12948144580832663, 0.0, 1.0]
GUROBI solution time: 9.487320184707642

